33D32945 STP File, STP Format Version 1.0

SECTION Comment
Name "wrp3-17-20s"
Creator "Bernd Zey"
Problem "Stochastic Steiner Tree Problem"
# Stochastic Steiner tree problem instance, base file: wrp3-17.stp
# weight-scaling on, factor=0.010000 (for "big-M" edges)
# parameters:
# distribution=equal
# selectRootRandomly=0
# probabilityTerminal=33
# probabilityNonTerminal=5
# 2nd stage edge-costs in [1.1000c_e, 1.3000c_e]
END

SECTION Graph
Nodes 177
Edges 354
Scenarios 20
Root 165
E 1 3 1
E 1 160 12
E 2 160 1
E 3 4 12
E 3 5 1
E 4 6 1
E 4 160 1
E 5 6 12
E 5 159 52
E 7 8 2
E 7 14 1
E 7 152 1
E 7 155 9
E 8 15 1
E 8 154 1
E 8 156 9
E 9 155 6
E 9 157 1
E 9 158 2
E 10 152 9
E 10 155 1
E 10 157 6
E 11 154 9
E 11 156 1
E 11 159 6
E 12 13 2
E 12 20 5
E 12 147 1
E 12 149 6
E 13 21 5
E 13 148 1
E 13 150 6
E 14 15 2
E 14 149 9
E 14 151 1
E 15 150 9
E 15 153 1
E 16 147 6
E 16 149 1
E 16 151 9
E 17 148 6
E 17 150 1
E 17 153 9
E 18 19 2
E 18 26 1
E 18 140 1
E 18 143 9
E 19 27 1
E 19 142 1
E 19 144 9
E 20 21 2
E 20 143 6
E 20 145 1
E 21 144 6
E 21 146 1
E 22 140 9
E 22 143 1
E 22 145 6
E 23 142 9
E 23 144 1
E 23 146 6
E 24 25 2
E 24 32 5
E 24 135 1
E 24 137 6
E 25 33 5
E 25 136 1
E 25 138 6
E 26 27 2
E 26 137 9
E 26 139 1
E 27 138 9
E 27 141 1
E 28 135 6
E 28 137 1
E 28 139 9
E 29 136 6
E 29 138 1
E 29 141 9
E 30 31 2
E 30 38 1
E 30 128 1
E 30 131 9
E 31 39 1
E 31 130 1
E 31 132 9
E 32 33 2
E 32 131 6
E 32 133 1
E 33 132 6
E 33 134 1
E 34 128 9
E 34 131 1
E 34 133 6
E 35 130 9
E 35 132 1
E 35 134 6
E 36 37 2
E 36 44 5
E 36 123 1
E 36 125 6
E 37 45 5
E 37 124 1
E 37 126 6
E 38 39 2
E 38 125 9
E 38 127 1
E 39 126 9
E 39 129 1
E 40 123 6
E 40 125 1
E 40 127 9
E 41 124 6
E 41 126 1
E 41 129 9
E 42 43 2
E 42 50 1
E 42 116 1
E 42 119 9
E 43 51 1
E 43 118 1
E 43 120 9
E 44 45 2
E 44 119 6
E 44 121 1
E 45 120 6
E 45 122 1
E 46 116 9
E 46 119 1
E 46 121 6
E 47 118 9
E 47 120 1
E 47 122 6
E 48 49 2
E 48 56 5
E 48 111 1
E 48 113 6
E 49 57 5
E 49 112 1
E 49 114 6
E 50 51 2
E 50 113 9
E 50 115 1
E 51 114 9
E 51 117 1
E 52 111 6
E 52 113 1
E 52 115 9
E 53 112 6
E 53 114 1
E 53 117 9
E 54 55 2
E 54 62 1
E 54 104 1
E 54 107 9
E 55 63 1
E 55 106 1
E 55 108 9
E 56 57 2
E 56 107 6
E 56 109 1
E 57 108 6
E 57 110 1
E 58 104 9
E 58 107 1
E 58 109 6
E 59 106 9
E 59 108 1
E 59 110 6
E 60 61 2
E 60 68 5
E 60 99 1
E 60 101 6
E 61 69 5
E 61 100 1
E 61 102 6
E 62 63 2
E 62 101 9
E 62 103 1
E 63 102 9
E 63 105 1
E 64 99 6
E 64 101 1
E 64 103 9
E 65 100 6
E 65 102 1
E 65 105 9
E 66 67 2
E 66 74 1
E 66 92 1
E 66 95 9
E 67 75 1
E 67 94 1
E 67 96 9
E 68 69 2
E 68 95 6
E 68 97 1
E 69 96 6
E 69 98 1
E 70 92 9
E 70 95 1
E 70 97 6
E 71 94 9
E 71 96 1
E 71 98 6
E 72 73 2
E 72 78 5
E 72 87 1
E 72 89 6
E 73 79 5
E 73 88 1
E 73 90 6
E 74 75 2
E 74 89 9
E 74 91 1
E 75 90 9
E 75 93 1
E 76 87 6
E 76 89 1
E 76 91 9
E 77 88 6
E 77 90 1
E 77 93 9
E 78 79 2
E 78 83 6
E 78 85 1
E 79 84 6
E 79 86 1
E 80 83 1
E 80 85 6
E 81 84 1
E 81 86 6
E 82 157 168
E 83 84 2
E 85 87 5
E 86 88 5
E 89 90 2
E 91 92 1
E 93 94 1
E 95 96 2
E 97 99 5
E 98 100 5
E 101 102 2
E 103 104 1
E 105 106 1
E 107 108 2
E 109 111 5
E 110 112 5
E 113 114 2
E 115 116 1
E 117 118 1
E 119 120 2
E 121 123 5
E 122 124 5
E 125 126 2
E 127 128 1
E 129 130 1
E 131 132 2
E 133 135 5
E 134 136 5
E 137 138 2
E 139 140 1
E 141 142 1
E 143 144 2
E 145 147 5
E 146 148 5
E 149 150 2
E 151 152 1
E 153 154 1
E 155 156 2
E 156 158 6
E 158 159 1
E 1 161 1000
E 2 161 1000
E 3 162 1000
E 4 162 1000
E 5 163 1000
E 6 163 1000
E 7 164 1000
E 8 164 1000
E 9 164 1000
E 10 164 1000
E 11 164 1000
E 12 165 1000
E 13 165 1000
E 14 165 1000
E 15 165 1000
E 16 165 1000
E 17 165 1000
E 18 166 1000
E 19 166 1000
E 20 166 1000
E 21 166 1000
E 22 166 1000
E 23 166 1000
E 24 167 1000
E 25 167 1000
E 26 167 1000
E 27 167 1000
E 28 167 1000
E 29 167 1000
E 30 168 1000
E 31 168 1000
E 32 168 1000
E 33 168 1000
E 34 168 1000
E 35 168 1000
E 36 169 1000
E 37 169 1000
E 38 169 1000
E 39 169 1000
E 40 169 1000
E 41 169 1000
E 42 170 1000
E 43 170 1000
E 44 170 1000
E 45 170 1000
E 46 170 1000
E 47 170 1000
E 48 171 1000
E 49 171 1000
E 50 171 1000
E 51 171 1000
E 52 171 1000
E 53 171 1000
E 54 172 1000
E 55 172 1000
E 56 172 1000
E 57 172 1000
E 58 172 1000
E 59 172 1000
E 60 173 1000
E 61 173 1000
E 62 173 1000
E 63 173 1000
E 64 173 1000
E 65 173 1000
E 66 174 1000
E 67 174 1000
E 68 174 1000
E 69 174 1000
E 70 174 1000
E 71 174 1000
E 72 175 1000
E 73 175 1000
E 74 175 1000
E 75 175 1000
E 76 175 1000
E 77 175 1000
E 78 176 1000
E 79 176 1000
E 80 176 1000
E 81 176 1000
E 82 177 1000
END

SECTION StochasticProbabilities
SP 0.087000 0.053200 0.043500 0.038700 0.053200 0.067700 0.048400 0.062900 0.033800 0.043400 0.057900 0.024100 0.062800 0.053100 0.033800 0.038600 0.043400 0.048300 0.057900 0.048300
END

SECTION StochasticWeights
SE 2 2 2 2 2 2 2 2 2 2 2 2 2 2 2 2 2 2 2 2 
SE 15 14 15 14 14 14 15 14 14 14 14 14 14 15 14 15 15 15 14 14 
SE 2 2 2 2 2 2 2 2 2 2 2 2 2 2 2 2 2 2 2 2 
SE 14 14 14 14 14 14 14 14 14 14 14 15 14 14 14 14 14 15 14 14 
SE 2 2 2 2 2 2 2 2 2 2 2 2 2 2 2 2 2 2 2 2 
SE 2 2 2 2 2 2 2 2 2 2 2 2 2 2 2 2 2 2 2 2 
SE 2 2 2 2 2 2 2 2 2 2 2 2 2 2 2 2 2 2 2 2 
SE 15 14 15 14 14 15 15 14 15 15 14 15 15 14 14 15 15 14 14 15 
SE 59 58 65 58 59 66 66 59 67 64 65 67 65 60 63 65 62 58 62 63 
SE 3 3 3 3 3 3 3 3 3 3 3 3 3 3 3 3 3 3 3 3 
SE 2 2 2 2 2 2 2 2 2 2 2 2 2 2 2 2 2 2 2 2 
SE 2 2 2 2 2 2 2 2 2 2 2 2 2 2 2 2 2 2 2 2 
SE 11 10 10 10 11 10 10 11 10 10 10 10 10 10 10 11 10 10 10 10 
SE 2 2 2 2 2 2 2 2 2 2 2 2 2 2 2 2 2 2 2 2 
SE 2 2 2 2 2 2 2 2 2 2 2 2 2 2 2 2 2 2 2 2 
SE 10 11 10 10 10 11 10 10 10 11 10 10 10 10 11 11 10 11 11 10 
SE 7 7 7 7 7 7 7 7 7 7 7 7 7 7 7 7 7 7 7 7 
SE 2 2 2 2 2 2 2 2 2 2 2 2 2 2 2 2 2 2 2 2 
SE 3 3 3 3 3 3 3 3 3 3 3 3 3 3 3 3 3 3 3 3 
SE 10 10 10 10 11 10 10 10 10 10 11 10 10 11 10 10 11 10 10 11 
SE 2 2 2 2 2 2 2 2 2 2 2 2 2 2 2 2 2 2 2 2 
SE 7 7 7 7 7 7 7 7 7 7 7 7 7 7 7 7 7 7 7 7 
SE 10 10 10 10 11 11 11 10 11 11 11 10 10 10 10 10 10 10 10 10 
SE 2 2 2 2 2 2 2 2 2 2 2 2 2 2 2 2 2 2 2 2 
SE 7 7 7 7 7 7 7 7 7 7 7 7 7 7 7 7 7 7 7 7 
SE 3 3 3 3 3 3 3 3 3 3 3 3 3 3 3 3 3 3 3 3 
SE 6 6 6 6 6 6 6 6 6 6 6 6 6 6 6 6 6 6 6 6 
SE 2 2 2 2 2 2 2 2 2 2 2 2 2 2 2 2 2 2 2 2 
SE 7 7 7 7 7 7 7 7 7 7 7 7 7 7 7 7 7 7 7 7 
SE 6 6 6 6 6 6 6 6 6 6 6 6 6 6 6 6 6 6 6 6 
SE 2 2 2 2 2 2 2 2 2 2 2 2 2 2 2 2 2 2 2 2 
SE 7 7 7 7 7 7 7 7 7 7 7 7 7 7 7 7 7 7 7 7 
SE 3 3 3 3 3 3 3 3 3 3 3 3 3 3 3 3 3 3 3 3 
SE 10 10 11 10 10 10 10 10 10 11 11 10 10 10 11 10 10 10 10 11 
SE 2 2 2 2 2 2 2 2 2 2 2 2 2 2 2 2 2 2 2 2 
SE 10 10 10 11 10 11 10 11 10 10 11 11 11 10 10 10 10 10 10 11 
SE 2 2 2 2 2 2 2 2 2 2 2 2 2 2 2 2 2 2 2 2 
SE 7 7 7 7 7 7 7 7 7 7 7 7 7 7 7 7 7 7 7 7 
SE 2 2 2 2 2 2 2 2 2 2 2 2 2 2 2 2 2 2 2 2 
SE 10 11 11 10 11 11 11 10 10 10 10 10 10 10 11 10 10 10 10 10 
SE 7 7 7 7 7 7 7 7 7 7 7 7 7 7 7 7 7 7 7 7 
SE 2 2 2 2 2 2 2 2 2 2 2 2 2 2 2 2 2 2 2 2 
SE 10 10 10 10 11 10 10 11 10 10 11 11 10 10 10 10 11 10 10 11 
SE 3 3 3 3 3 3 3 3 3 3 3 3 3 3 3 3 3 3 3 3 
SE 2 2 2 2 2 2 2 2 2 2 2 2 2 2 2 2 2 2 2 2 
SE 2 2 2 2 2 2 2 2 2 2 2 2 2 2 2 2 2 2 2 2 
SE 11 11 10 10 10 11 11 10 10 10 11 11 10 11 10 11 11 11 10 10 
SE 2 2 2 2 2 2 2 2 2 2 2 2 2 2 2 2 2 2 2 2 
SE 2 2 2 2 2 2 2 2 2 2 2 2 2 2 2 2 2 2 2 2 
SE 10 10 11 11 10 10 10 10 10 10 10 10 11 11 10 10 11 10 10 10 
SE 3 3 3 3 3 3 3 3 3 3 3 3 3 3 3 3 3 3 3 3 
SE 7 7 7 7 7 7 7 7 7 7 7 7 7 7 7 7 7 7 7 7 
SE 2 2 2 2 2 2 2 2 2 2 2 2 2 2 2 2 2 2 2 2 
SE 7 7 7 7 7 7 7 7 7 7 7 7 7 7 7 7 7 7 7 7 
SE 2 2 2 2 2 2 2 2 2 2 2 2 2 2 2 2 2 2 2 2 
SE 10 11 11 11 10 10 11 11 10 10 10 10 11 11 11 10 11 10 10 10 
SE 2 2 2 2 2 2 2 2 2 2 2 2 2 2 2 2 2 2 2 2 
SE 7 7 7 7 7 7 7 7 7 7 7 7 7 7 7 7 7 7 7 7 
SE 11 11 11 10 10 11 11 10 11 10 10 11 11 10 10 10 10 10 10 10 
SE 2 2 2 2 2 2 2 2 2 2 2 2 2 2 2 2 2 2 2 2 
SE 7 7 7 7 7 7 7 7 7 7 7 7 7 7 7 7 7 7 7 7 
SE 3 3 3 3 3 3 3 3 3 3 3 3 3 3 3 3 3 3 3 3 
SE 6 6 6 6 6 6 6 6 6 6 6 6 6 6 6 6 6 6 6 6 
SE 2 2 2 2 2 2 2 2 2 2 2 2 2 2 2 2 2 2 2 2 
SE 7 7 7 7 7 7 7 7 7 7 7 7 7 7 7 7 7 7 7 7 
SE 6 6 6 6 6 6 6 6 6 6 6 6 6 6 6 6 6 6 6 6 
SE 2 2 2 2 2 2 2 2 2 2 2 2 2 2 2 2 2 2 2 2 
SE 7 7 7 7 7 7 7 7 7 7 7 7 7 7 7 7 7 7 7 7 
SE 3 3 3 3 3 3 3 3 3 3 3 3 3 3 3 3 3 3 3 3 
SE 11 10 11 10 10 10 10 10 10 11 10 10 10 11 11 10 10 10 10 10 
SE 2 2 2 2 2 2 2 2 2 2 2 2 2 2 2 2 2 2 2 2 
SE 10 10 10 10 10 10 11 11 11 10 10 11 10 10 10 11 10 11 11 11 
SE 2 2 2 2 2 2 2 2 2 2 2 2 2 2 2 2 2 2 2 2 
SE 7 7 7 7 7 7 7 7 7 7 7 7 7 7 7 7 7 7 7 7 
SE 2 2 2 2 2 2 2 2 2 2 2 2 2 2 2 2 2 2 2 2 
SE 10 10 10 10 11 11 10 10 10 10 11 11 10 11 11 10 10 10 10 10 
SE 7 7 7 7 7 7 7 7 7 7 7 7 7 7 7 7 7 7 7 7 
SE 2 2 2 2 2 2 2 2 2 2 2 2 2 2 2 2 2 2 2 2 
SE 10 10 11 10 10 10 10 11 10 10 11 10 10 10 11 11 11 10 10 10 
SE 3 3 3 3 3 3 3 3 3 3 3 3 3 3 3 3 3 3 3 3 
SE 2 2 2 2 2 2 2 2 2 2 2 2 2 2 2 2 2 2 2 2 
SE 2 2 2 2 2 2 2 2 2 2 2 2 2 2 2 2 2 2 2 2 
SE 11 10 11 10 10 10 10 10 10 10 10 10 10 10 10 10 11 11 10 10 
SE 2 2 2 2 2 2 2 2 2 2 2 2 2 2 2 2 2 2 2 2 
SE 2 2 2 2 2 2 2 2 2 2 2 2 2 2 2 2 2 2 2 2 
SE 10 10 10 10 10 11 10 10 11 11 10 10 10 10 10 10 10 11 10 10 
SE 3 3 3 3 3 3 3 3 3 3 3 3 3 3 3 3 3 3 3 3 
SE 7 7 7 7 7 7 7 7 7 7 7 7 7 7 7 7 7 7 7 7 
SE 2 2 2 2 2 2 2 2 2 2 2 2 2 2 2 2 2 2 2 2 
SE 7 7 7 7 7 7 7 7 7 7 7 7 7 7 7 7 7 7 7 7 
SE 2 2 2 2 2 2 2 2 2 2 2 2 2 2 2 2 2 2 2 2 
SE 11 11 10 10 10 10 10 11 11 11 10 10 10 10 10 11 10 11 10 10 
SE 2 2 2 2 2 2 2 2 2 2 2 2 2 2 2 2 2 2 2 2 
SE 7 7 7 7 7 7 7 7 7 7 7 7 7 7 7 7 7 7 7 7 
SE 10 11 11 10 11 10 10 10 11 11 11 11 10 11 10 10 10 10 10 10 
SE 2 2 2 2 2 2 2 2 2 2 2 2 2 2 2 2 2 2 2 2 
SE 7 7 7 7 7 7 7 7 7 7 7 7 7 7 7 7 7 7 7 7 
SE 3 3 3 3 3 3 3 3 3 3 3 3 3 3 3 3 3 3 3 3 
SE 6 6 6 6 6 6 6 6 6 6 6 6 6 6 6 6 6 6 6 6 
SE 2 2 2 2 2 2 2 2 2 2 2 2 2 2 2 2 2 2 2 2 
SE 7 7 7 7 7 7 7 7 7 7 7 7 7 7 7 7 7 7 7 7 
SE 6 6 6 6 6 6 6 6 6 6 6 6 6 6 6 6 6 6 6 6 
SE 2 2 2 2 2 2 2 2 2 2 2 2 2 2 2 2 2 2 2 2 
SE 7 7 7 7 7 7 7 7 7 7 7 7 7 7 7 7 7 7 7 7 
SE 3 3 3 3 3 3 3 3 3 3 3 3 3 3 3 3 3 3 3 3 
SE 10 10 11 11 10 10 11 10 10 10 11 11 10 10 11 11 11 11 11 10 
SE 2 2 2 2 2 2 2 2 2 2 2 2 2 2 2 2 2 2 2 2 
SE 10 10 10 11 10 11 10 10 10 10 10 11 11 10 10 10 10 10 10 11 
SE 2 2 2 2 2 2 2 2 2 2 2 2 2 2 2 2 2 2 2 2 
SE 7 7 7 7 7 7 7 7 7 7 7 7 7 7 7 7 7 7 7 7 
SE 2 2 2 2 2 2 2 2 2 2 2 2 2 2 2 2 2 2 2 2 
SE 10 11 10 10 11 11 11 10 11 11 10 10 10 10 10 11 10 11 10 11 
SE 7 7 7 7 7 7 7 7 7 7 7 7 7 7 7 7 7 7 7 7 
SE 2 2 2 2 2 2 2 2 2 2 2 2 2 2 2 2 2 2 2 2 
SE 10 10 10 11 10 10 10 11 10 11 10 11 10 10 10 11 10 10 10 11 
SE 3 3 3 3 3 3 3 3 3 3 3 3 3 3 3 3 3 3 3 3 
SE 2 2 2 2 2 2 2 2 2 2 2 2 2 2 2 2 2 2 2 2 
SE 2 2 2 2 2 2 2 2 2 2 2 2 2 2 2 2 2 2 2 2 
SE 10 11 11 11 10 10 11 11 10 10 10 10 10 11 10 10 10 10 10 11 
SE 2 2 2 2 2 2 2 2 2 2 2 2 2 2 2 2 2 2 2 2 
SE 2 2 2 2 2 2 2 2 2 2 2 2 2 2 2 2 2 2 2 2 
SE 10 11 10 11 11 11 11 10 11 10 11 11 10 11 11 11 10 10 10 10 
SE 3 3 3 3 3 3 3 3 3 3 3 3 3 3 3 3 3 3 3 3 
SE 7 7 7 7 7 7 7 7 7 7 7 7 7 7 7 7 7 7 7 7 
SE 2 2 2 2 2 2 2 2 2 2 2 2 2 2 2 2 2 2 2 2 
SE 7 7 7 7 7 7 7 7 7 7 7 7 7 7 7 7 7 7 7 7 
SE 2 2 2 2 2 2 2 2 2 2 2 2 2 2 2 2 2 2 2 2 
SE 10 10 10 10 10 10 10 10 10 10 10 10 11 10 10 11 10 10 10 11 
SE 2 2 2 2 2 2 2 2 2 2 2 2 2 2 2 2 2 2 2 2 
SE 7 7 7 7 7 7 7 7 7 7 7 7 7 7 7 7 7 7 7 7 
SE 10 11 11 10 11 10 11 11 11 10 10 11 11 10 11 11 10 10 11 10 
SE 2 2 2 2 2 2 2 2 2 2 2 2 2 2 2 2 2 2 2 2 
SE 7 7 7 7 7 7 7 7 7 7 7 7 7 7 7 7 7 7 7 7 
SE 3 3 3 3 3 3 3 3 3 3 3 3 3 3 3 3 3 3 3 3 
SE 6 6 6 6 6 6 6 6 6 6 6 6 6 6 6 6 6 6 6 6 
SE 2 2 2 2 2 2 2 2 2 2 2 2 2 2 2 2 2 2 2 2 
SE 7 7 7 7 7 7 7 7 7 7 7 7 7 7 7 7 7 7 7 7 
SE 6 6 6 6 6 6 6 6 6 6 6 6 6 6 6 6 6 6 6 6 
SE 2 2 2 2 2 2 2 2 2 2 2 2 2 2 2 2 2 2 2 2 
SE 7 7 7 7 7 7 7 7 7 7 7 7 7 7 7 7 7 7 7 7 
SE 3 3 3 3 3 3 3 3 3 3 3 3 3 3 3 3 3 3 3 3 
SE 10 10 10 11 11 10 10 10 10 11 10 10 10 10 10 11 11 10 10 10 
SE 2 2 2 2 2 2 2 2 2 2 2 2 2 2 2 2 2 2 2 2 
SE 10 10 10 10 11 10 10 11 11 10 10 10 11 10 10 11 10 11 10 11 
SE 2 2 2 2 2 2 2 2 2 2 2 2 2 2 2 2 2 2 2 2 
SE 7 7 7 7 7 7 7 7 7 7 7 7 7 7 7 7 7 7 7 7 
SE 2 2 2 2 2 2 2 2 2 2 2 2 2 2 2 2 2 2 2 2 
SE 10 11 11 11 10 10 11 11 10 10 11 10 10 10 10 10 10 10 11 10 
SE 7 7 7 7 7 7 7 7 7 7 7 7 7 7 7 7 7 7 7 7 
SE 2 2 2 2 2 2 2 2 2 2 2 2 2 2 2 2 2 2 2 2 
SE 10 11 11 10 10 10 10 11 10 10 10 11 11 10 10 10 10 11 11 10 
SE 3 3 3 3 3 3 3 3 3 3 3 3 3 3 3 3 3 3 3 3 
SE 2 2 2 2 2 2 2 2 2 2 2 2 2 2 2 2 2 2 2 2 
SE 2 2 2 2 2 2 2 2 2 2 2 2 2 2 2 2 2 2 2 2 
SE 10 10 10 10 11 10 10 11 11 10 10 10 10 10 10 10 10 11 10 11 
SE 2 2 2 2 2 2 2 2 2 2 2 2 2 2 2 2 2 2 2 2 
SE 2 2 2 2 2 2 2 2 2 2 2 2 2 2 2 2 2 2 2 2 
SE 10 11 11 10 10 11 10 10 11 10 10 10 10 11 11 10 11 10 10 10 
SE 3 3 3 3 3 3 3 3 3 3 3 3 3 3 3 3 3 3 3 3 
SE 7 7 7 7 7 7 7 7 7 7 7 7 7 7 7 7 7 7 7 7 
SE 2 2 2 2 2 2 2 2 2 2 2 2 2 2 2 2 2 2 2 2 
SE 7 7 7 7 7 7 7 7 7 7 7 7 7 7 7 7 7 7 7 7 
SE 2 2 2 2 2 2 2 2 2 2 2 2 2 2 2 2 2 2 2 2 
SE 11 10 10 10 11 11 10 10 10 10 10 10 11 10 10 11 10 10 10 11 
SE 2 2 2 2 2 2 2 2 2 2 2 2 2 2 2 2 2 2 2 2 
SE 7 7 7 7 7 7 7 7 7 7 7 7 7 7 7 7 7 7 7 7 
SE 10 10 10 11 11 10 10 10 10 11 11 10 11 11 10 10 10 10 10 10 
SE 2 2 2 2 2 2 2 2 2 2 2 2 2 2 2 2 2 2 2 2 
SE 7 7 7 7 7 7 7 7 7 7 7 7 7 7 7 7 7 7 7 7 
SE 3 3 3 3 3 3 3 3 3 3 3 3 3 3 3 3 3 3 3 3 
SE 6 6 6 6 6 6 6 6 6 6 6 6 6 6 6 6 6 6 6 6 
SE 2 2 2 2 2 2 2 2 2 2 2 2 2 2 2 2 2 2 2 2 
SE 7 7 7 7 7 7 7 7 7 7 7 7 7 7 7 7 7 7 7 7 
SE 6 6 6 6 6 6 6 6 6 6 6 6 6 6 6 6 6 6 6 6 
SE 2 2 2 2 2 2 2 2 2 2 2 2 2 2 2 2 2 2 2 2 
SE 7 7 7 7 7 7 7 7 7 7 7 7 7 7 7 7 7 7 7 7 
SE 3 3 3 3 3 3 3 3 3 3 3 3 3 3 3 3 3 3 3 3 
SE 11 11 10 10 10 11 11 10 10 10 10 11 10 10 10 11 10 11 11 10 
SE 2 2 2 2 2 2 2 2 2 2 2 2 2 2 2 2 2 2 2 2 
SE 10 11 10 10 10 10 11 11 10 11 11 10 10 10 11 10 10 10 10 11 
SE 2 2 2 2 2 2 2 2 2 2 2 2 2 2 2 2 2 2 2 2 
SE 7 7 7 7 7 7 7 7 7 7 7 7 7 7 7 7 7 7 7 7 
SE 2 2 2 2 2 2 2 2 2 2 2 2 2 2 2 2 2 2 2 2 
SE 10 11 10 10 11 11 10 10 10 10 10 11 11 10 10 10 11 11 11 10 
SE 7 7 7 7 7 7 7 7 7 7 7 7 7 7 7 7 7 7 7 7 
SE 2 2 2 2 2 2 2 2 2 2 2 2 2 2 2 2 2 2 2 2 
SE 11 10 11 10 10 10 10 10 10 11 11 10 10 10 11 10 10 10 10 10 
SE 3 3 3 3 3 3 3 3 3 3 3 3 3 3 3 3 3 3 3 3 
SE 2 2 2 2 2 2 2 2 2 2 2 2 2 2 2 2 2 2 2 2 
SE 2 2 2 2 2 2 2 2 2 2 2 2 2 2 2 2 2 2 2 2 
SE 11 11 10 10 10 10 10 11 10 11 11 10 11 11 11 10 11 11 10 11 
SE 2 2 2 2 2 2 2 2 2 2 2 2 2 2 2 2 2 2 2 2 
SE 2 2 2 2 2 2 2 2 2 2 2 2 2 2 2 2 2 2 2 2 
SE 10 10 10 10 10 11 10 10 10 11 10 11 10 10 10 11 10 11 10 11 
SE 3 3 3 3 3 3 3 3 3 3 3 3 3 3 3 3 3 3 3 3 
SE 7 7 7 7 7 7 7 7 7 7 7 7 7 7 7 7 7 7 7 7 
SE 2 2 2 2 2 2 2 2 2 2 2 2 2 2 2 2 2 2 2 2 
SE 7 7 7 7 7 7 7 7 7 7 7 7 7 7 7 7 7 7 7 7 
SE 2 2 2 2 2 2 2 2 2 2 2 2 2 2 2 2 2 2 2 2 
SE 11 10 10 11 10 11 10 11 10 11 10 10 11 10 10 11 10 10 10 11 
SE 2 2 2 2 2 2 2 2 2 2 2 2 2 2 2 2 2 2 2 2 
SE 7 7 7 7 7 7 7 7 7 7 7 7 7 7 7 7 7 7 7 7 
SE 10 11 10 11 10 10 11 10 10 11 10 10 11 10 10 10 11 10 10 10 
SE 2 2 2 2 2 2 2 2 2 2 2 2 2 2 2 2 2 2 2 2 
SE 7 7 7 7 7 7 7 7 7 7 7 7 7 7 7 7 7 7 7 7 
SE 3 3 3 3 3 3 3 3 3 3 3 3 3 3 3 3 3 3 3 3 
SE 6 6 6 6 6 6 6 6 6 6 6 6 6 6 6 6 6 6 6 6 
SE 2 2 2 2 2 2 2 2 2 2 2 2 2 2 2 2 2 2 2 2 
SE 7 7 7 7 7 7 7 7 7 7 7 7 7 7 7 7 7 7 7 7 
SE 6 6 6 6 6 6 6 6 6 6 6 6 6 6 6 6 6 6 6 6 
SE 2 2 2 2 2 2 2 2 2 2 2 2 2 2 2 2 2 2 2 2 
SE 7 7 7 7 7 7 7 7 7 7 7 7 7 7 7 7 7 7 7 7 
SE 3 3 3 3 3 3 3 3 3 3 3 3 3 3 3 3 3 3 3 3 
SE 11 10 11 10 10 10 10 10 10 10 10 10 10 11 10 10 10 11 10 10 
SE 2 2 2 2 2 2 2 2 2 2 2 2 2 2 2 2 2 2 2 2 
SE 10 10 11 10 11 10 10 10 11 10 11 10 10 11 11 10 10 10 10 11 
SE 2 2 2 2 2 2 2 2 2 2 2 2 2 2 2 2 2 2 2 2 
SE 7 7 7 7 7 7 7 7 7 7 7 7 7 7 7 7 7 7 7 7 
SE 2 2 2 2 2 2 2 2 2 2 2 2 2 2 2 2 2 2 2 2 
SE 10 10 10 10 10 11 10 10 11 10 10 10 10 10 11 10 11 10 11 11 
SE 7 7 7 7 7 7 7 7 7 7 7 7 7 7 7 7 7 7 7 7 
SE 2 2 2 2 2 2 2 2 2 2 2 2 2 2 2 2 2 2 2 2 
SE 10 11 10 10 11 10 11 10 10 10 10 11 10 10 10 10 11 10 10 10 
SE 3 3 3 3 3 3 3 3 3 3 3 3 3 3 3 3 3 3 3 3 
SE 7 7 7 7 7 7 7 7 7 7 7 7 7 7 7 7 7 7 7 7 
SE 2 2 2 2 2 2 2 2 2 2 2 2 2 2 2 2 2 2 2 2 
SE 7 7 7 7 7 7 7 7 7 7 7 7 7 7 7 7 7 7 7 7 
SE 2 2 2 2 2 2 2 2 2 2 2 2 2 2 2 2 2 2 2 2 
SE 2 2 2 2 2 2 2 2 2 2 2 2 2 2 2 2 2 2 2 2 
SE 7 7 7 7 7 7 7 7 7 7 7 7 7 7 7 7 7 7 7 7 
SE 2 2 2 2 2 2 2 2 2 2 2 2 2 2 2 2 2 2 2 2 
SE 7 7 7 7 7 7 7 7 7 7 7 7 7 7 7 7 7 7 7 7 
SE 191 202 209 199 185 209 212 200 193 214 198 189 215 208 207 190 216 218 199 192 
SE 3 3 3 3 3 3 3 3 3 3 3 3 3 3 3 3 3 3 3 3 
SE 6 6 6 6 6 6 6 6 6 6 6 6 6 6 6 6 6 6 6 6 
SE 6 6 6 6 6 6 6 6 6 6 6 6 6 6 6 6 6 6 6 6 
SE 3 3 3 3 3 3 3 3 3 3 3 3 3 3 3 3 3 3 3 3 
SE 2 2 2 2 2 2 2 2 2 2 2 2 2 2 2 2 2 2 2 2 
SE 2 2 2 2 2 2 2 2 2 2 2 2 2 2 2 2 2 2 2 2 
SE 3 3 3 3 3 3 3 3 3 3 3 3 3 3 3 3 3 3 3 3 
SE 6 6 6 6 6 6 6 6 6 6 6 6 6 6 6 6 6 6 6 6 
SE 6 6 6 6 6 6 6 6 6 6 6 6 6 6 6 6 6 6 6 6 
SE 3 3 3 3 3 3 3 3 3 3 3 3 3 3 3 3 3 3 3 3 
SE 2 2 2 2 2 2 2 2 2 2 2 2 2 2 2 2 2 2 2 2 
SE 2 2 2 2 2 2 2 2 2 2 2 2 2 2 2 2 2 2 2 2 
SE 3 3 3 3 3 3 3 3 3 3 3 3 3 3 3 3 3 3 3 3 
SE 6 6 6 6 6 6 6 6 6 6 6 6 6 6 6 6 6 6 6 6 
SE 6 6 6 6 6 6 6 6 6 6 6 6 6 6 6 6 6 6 6 6 
SE 3 3 3 3 3 3 3 3 3 3 3 3 3 3 3 3 3 3 3 3 
SE 2 2 2 2 2 2 2 2 2 2 2 2 2 2 2 2 2 2 2 2 
SE 2 2 2 2 2 2 2 2 2 2 2 2 2 2 2 2 2 2 2 2 
SE 3 3 3 3 3 3 3 3 3 3 3 3 3 3 3 3 3 3 3 3 
SE 6 6 6 6 6 6 6 6 6 6 6 6 6 6 6 6 6 6 6 6 
SE 6 6 6 6 6 6 6 6 6 6 6 6 6 6 6 6 6 6 6 6 
SE 3 3 3 3 3 3 3 3 3 3 3 3 3 3 3 3 3 3 3 3 
SE 2 2 2 2 2 2 2 2 2 2 2 2 2 2 2 2 2 2 2 2 
SE 2 2 2 2 2 2 2 2 2 2 2 2 2 2 2 2 2 2 2 2 
SE 3 3 3 3 3 3 3 3 3 3 3 3 3 3 3 3 3 3 3 3 
SE 6 6 6 6 6 6 6 6 6 6 6 6 6 6 6 6 6 6 6 6 
SE 6 6 6 6 6 6 6 6 6 6 6 6 6 6 6 6 6 6 6 6 
SE 3 3 3 3 3 3 3 3 3 3 3 3 3 3 3 3 3 3 3 3 
SE 2 2 2 2 2 2 2 2 2 2 2 2 2 2 2 2 2 2 2 2 
SE 2 2 2 2 2 2 2 2 2 2 2 2 2 2 2 2 2 2 2 2 
SE 3 3 3 3 3 3 3 3 3 3 3 3 3 3 3 3 3 3 3 3 
SE 6 6 6 6 6 6 6 6 6 6 6 6 6 6 6 6 6 6 6 6 
SE 6 6 6 6 6 6 6 6 6 6 6 6 6 6 6 6 6 6 6 6 
SE 3 3 3 3 3 3 3 3 3 3 3 3 3 3 3 3 3 3 3 3 
SE 2 2 2 2 2 2 2 2 2 2 2 2 2 2 2 2 2 2 2 2 
SE 2 2 2 2 2 2 2 2 2 2 2 2 2 2 2 2 2 2 2 2 
SE 3 3 3 3 3 3 3 3 3 3 3 3 3 3 3 3 3 3 3 3 
SE 7 7 7 7 7 7 7 7 7 7 7 7 7 7 7 7 7 7 7 7 
SE 2 2 2 2 2 2 2 2 2 2 2 2 2 2 2 2 2 2 2 2 
SE 1281 1251 1285 1107 1138 1243 1221 1177 1235 1128 1166 1141 1290 1285 1130 1271 1227 1163 1115 1272 
SE 1231 1300 1176 1270 1208 1240 1190 1153 1268 1156 1273 1160 1141 1256 1175 1171 1294 1286 1127 1293 
SE 1170 1278 1149 1235 1292 1152 1293 1117 1285 1267 1288 1292 1208 1208 1121 1147 1286 1288 1149 1113 
SE 1248 1142 1147 1162 1181 1194 1108 1281 1278 1132 1229 1229 1112 1290 1259 1153 1159 1292 1188 1110 
SE 1186 1231 1183 1109 1119 1205 1284 1126 1297 1111 1266 1274 1191 1228 1104 1148 1265 1157 1178 1257 
SE 1177 1124 1120 1270 1289 1205 1156 1269 1205 1176 1295 1210 1169 1118 1236 1166 1100 1245 1240 1105 
SE 1137 1130 1143 1136 1193 1237 1182 1299 1139 1107 1255 1131 1256 1166 1170 1114 1116 1214 1251 1158 
SE 1236 1269 1142 1161 1212 1184 1228 1185 1100 1159 1102 1294 1120 1223 1175 1243 1111 1188 1212 1193 
SE 1108 1296 1103 1246 1129 1266 1192 1268 1205 1121 1151 1189 1154 1143 1167 1195 1285 1182 1152 1180 
SE 1182 1256 1137 1231 1123 1277 1207 1120 1190 1203 1120 1112 1212 1267 1223 1107 1164 1126 1236 1186 
SE 1241 1225 1170 1242 1123 1226 1251 1265 1215 1108 1278 1259 1257 1277 1270 1160 1120 1111 1137 1207 
SE 1155 1278 1199 1214 1146 1125 1230 1171 1281 1280 1212 1138 1145 1153 1255 1192 1253 1116 1221 1248 
SE 1139 1187 1134 1154 1102 1173 1131 1279 1160 1264 1200 1111 1206 1157 1282 1139 1294 1156 1223 1123 
SE 1148 1238 1285 1100 1183 1216 1178 1165 1182 1180 1296 1101 1267 1158 1274 1271 1171 1138 1113 1271 
SE 1290 1178 1294 1246 1209 1116 1273 1164 1104 1215 1153 1158 1255 1283 1249 1246 1104 1276 1137 1300 
SE 1218 1153 1282 1216 1228 1180 1150 1217 1234 1121 1299 1124 1135 1207 1151 1200 1206 1128 1224 1105 
SE 1116 1259 1186 1110 1209 1144 1293 1202 1152 1174 1176 1267 1156 1221 1220 1255 1179 1207 1130 1182 
SE 1206 1278 1105 1119 1200 1228 1181 1287 1230 1226 1145 1107 1276 1179 1205 1152 1140 1228 1124 1266 
SE 1176 1139 1194 1207 1255 1151 1256 1115 1196 1300 1205 1155 1194 1253 1185 1208 1237 1174 1171 1233 
SE 1136 1160 1245 1294 1223 1185 1201 1217 1259 1203 1212 1275 1290 1227 1241 1121 1156 1155 1120 1106 
SE 1294 1277 1144 1179 1167 1164 1297 1114 1112 1294 1265 1136 1149 1206 1267 1259 1181 1125 1138 1296 
SE 1242 1294 1290 1123 1205 1150 1261 1203 1268 1104 1157 1181 1276 1266 1284 1229 1259 1183 1130 1213 
SE 1162 1126 1250 1266 1168 1214 1124 1173 1212 1235 1247 1168 1260 1141 1185 1157 1245 1264 1291 1251 
SE 1145 1127 1121 1128 1244 1161 1145 1295 1232 1137 1170 1138 1254 1176 1113 1181 1115 1194 1282 1300 
SE 1235 1182 1261 1103 1264 1261 1254 1115 1147 1293 1283 1287 1210 1272 1207 1205 1284 1161 1139 1170 
SE 1188 1256 1207 1121 1275 1234 1133 1107 1219 1148 1144 1237 1240 1200 1206 1288 1135 1126 1276 1171 
SE 1297 1125 1156 1184 1128 1232 1247 1237 1272 1247 1208 1275 1239 1253 1241 1167 1279 1122 1222 1105 
SE 1281 1159 1213 1137 1155 1155 1171 1230 1163 1227 1251 1109 1217 1227 1212 1185 1104 1228 1122 1173 
SE 1185 1191 1212 1258 1221 1232 1194 1208 1126 1159 1288 1231 1253 1185 1152 1127 1195 1300 1187 1141 
SE 1162 1131 1227 1136 1252 1202 1220 1295 1291 1295 1178 1113 1185 1218 1248 1284 1173 1174 1207 1180 
SE 1156 1288 1114 1181 1196 1273 1107 1112 1208 1248 1245 1277 1227 1253 1116 1199 1105 1221 1195 1218 
SE 1165 1292 1146 1215 1209 1174 1265 1285 1212 1187 1103 1272 1242 1119 1182 1248 1121 1112 1152 1112 
SE 1293 1281 1253 1106 1159 1141 1260 1298 1258 1100 1150 1123 1226 1123 1273 1104 1116 1159 1185 1172 
SE 1226 1215 1113 1116 1137 1275 1250 1280 1192 1214 1183 1218 1286 1161 1137 1196 1292 1158 1244 1181 
SE 1263 1285 1193 1228 1241 1218 1274 1265 1139 1169 1232 1200 1205 1259 1141 1251 1130 1255 1190 1274 
SE 1128 1211 1287 1115 1179 1196 1244 1274 1254 1112 1115 1248 1267 1252 1277 1153 1232 1167 1263 1129 
SE 1102 1239 1285 1236 1125 1130 1105 1198 1298 1290 1127 1127 1154 1129 1274 1262 1292 1102 1133 1186 
SE 1300 1114 1186 1264 1133 1105 1155 1264 1178 1126 1187 1181 1160 1124 1161 1265 1297 1168 1140 1131 
SE 1265 1129 1128 1127 1291 1280 1171 1158 1204 1171 1269 1241 1237 1124 1101 1246 1243 1205 1124 1222 
SE 1261 1184 1288 1181 1105 1296 1148 1166 1152 1261 1178 1167 1158 1122 1291 1156 1226 1185 1186 1216 
SE 1131 1220 1174 1195 1106 1232 1213 1284 1218 1179 1157 1194 1222 1242 1284 1273 1160 1144 1227 1168 
SE 1155 1255 1148 1269 1264 1156 1273 1122 1118 1129 1196 1199 1143 1100 1272 1105 1213 1166 1111 1279 
SE 1266 1161 1136 1295 1151 1272 1278 1187 1284 1190 1290 1205 1203 1175 1245 1199 1179 1201 1257 1114 
SE 1171 1107 1158 1249 1109 1104 1244 1212 1278 1293 1208 1155 1127 1299 1215 1111 1154 1201 1149 1141 
SE 1153 1142 1132 1219 1297 1272 1150 1137 1200 1210 1191 1200 1110 1109 1195 1276 1284 1204 1276 1200 
SE 1256 1240 1281 1191 1210 1238 1200 1251 1288 1255 1293 1213 1108 1158 1143 1144 1133 1177 1295 1113 
SE 1289 1110 1139 1164 1187 1134 1294 1128 1161 1113 1156 1180 1113 1155 1267 1162 1210 1229 1223 1146 
SE 1170 1100 1169 1229 1206 1267 1293 1240 1202 1234 1218 1116 1166 1230 1114 1180 1112 1262 1105 1282 
SE 1111 1217 1236 1210 1110 1165 1282 1237 1217 1180 1138 1220 1284 1187 1198 1146 1173 1255 1269 1229 
SE 1114 1150 1233 1221 1141 1185 1199 1295 1207 1263 1261 1235 1207 1259 1151 1220 1297 1253 1294 1280 
SE 1156 1111 1113 1222 1279 1101 1194 1106 1160 1136 1129 1241 1155 1107 1255 1202 1119 1267 1276 1288 
SE 1105 1143 1281 1289 1127 1180 1228 1201 1229 1174 1253 1256 1283 1243 1164 1255 1204 1280 1257 1224 
SE 1206 1143 1172 1195 1197 1185 1109 1197 1175 1267 1269 1266 1182 1174 1286 1148 1255 1135 1274 1142 
SE 1218 1137 1213 1138 1147 1165 1218 1180 1222 1272 1227 1108 1114 1148 1291 1209 1264 1230 1266 1188 
SE 1150 1170 1252 1268 1221 1191 1223 1195 1111 1211 1273 1244 1187 1119 1177 1135 1219 1173 1189 1173 
SE 1291 1225 1284 1198 1110 1297 1214 1162 1172 1210 1251 1253 1243 1146 1192 1203 1188 1147 1113 1212 
SE 1256 1243 1119 1159 1272 1300 1201 1187 1292 1119 1221 1245 1205 1198 1196 1196 1250 1207 1241 1260 
SE 1297 1146 1107 1151 1199 1273 1169 1283 1233 1107 1130 1219 1276 1222 1268 1152 1198 1145 1110 1178 
SE 1271 1235 1146 1185 1165 1151 1285 1242 1185 1136 1152 1262 1159 1273 1254 1289 1193 1275 1286 1235 
SE 1140 1133 1231 1268 1142 1181 1245 1245 1117 1129 1159 1175 1157 1233 1249 1223 1144 1156 1279 1100 
SE 1109 1127 1184 1138 1150 1174 1289 1227 1223 1101 1208 1232 1160 1139 1215 1135 1221 1219 1167 1208 
SE 1278 1222 1160 1216 1261 1274 1243 1255 1293 1284 1297 1188 1236 1175 1270 1137 1148 1195 1130 1103 
SE 1155 1124 1227 1182 1201 1256 1210 1229 1179 1166 1112 1298 1249 1252 1281 1171 1116 1168 1281 1264 
SE 1101 1108 1288 1295 1160 1166 1198 1174 1131 1101 1259 1206 1236 1163 1137 1140 1238 1228 1252 1281 
SE 1203 1136 1124 1232 1299 1248 1142 1184 1185 1147 1129 1106 1221 1186 1107 1233 1139 1254 1224 1184 
SE 1117 1259 1119 1109 1141 1123 1183 1193 1218 1236 1245 1197 1153 1211 1121 1272 1146 1122 1171 1187 
SE 1281 1219 1274 1109 1189 1262 1141 1147 1235 1264 1224 1153 1202 1265 1114 1143 1169 1295 1164 1109 
SE 1156 1275 1108 1167 1274 1228 1299 1283 1132 1287 1156 1284 1276 1166 1231 1144 1282 1256 1258 1271 
SE 1268 1273 1206 1224 1124 1128 1188 1106 1296 1212 1282 1229 1163 1185 1132 1237 1143 1141 1161 1218 
SE 1245 1199 1252 1287 1129 1192 1163 1205 1139 1286 1142 1294 1138 1289 1115 1289 1262 1149 1188 1181 
SE 1116 1158 1246 1199 1279 1174 1146 1148 1134 1247 1234 1150 1284 1188 1221 1150 1207 1291 1294 1136 
SE 1299 1143 1280 1118 1131 1211 1251 1241 1213 1292 1289 1122 1285 1126 1115 1159 1203 1185 1288 1236 
SE 1250 1103 1300 1205 1244 1248 1135 1177 1157 1114 1188 1143 1182 1240 1237 1244 1124 1216 1150 1110 
SE 1233 1169 1282 1143 1281 1296 1274 1185 1117 1287 1174 1205 1137 1214 1165 1199 1236 1192 1250 1150 
SE 1169 1150 1137 1217 1291 1215 1194 1102 1140 1284 1196 1177 1263 1276 1231 1120 1207 1236 1287 1277 
SE 1102 1145 1132 1124 1240 1169 1135 1164 1208 1174 1230 1193 1142 1249 1131 1220 1107 1119 1125 1210 
SE 1188 1108 1212 1234 1190 1233 1174 1135 1104 1242 1116 1117 1145 1222 1158 1193 1269 1219 1194 1113 
SE 1107 1160 1126 1231 1177 1250 1137 1282 1151 1248 1203 1257 1226 1281 1197 1182 1267 1165 1209 1274 
SE 1122 1296 1201 1253 1296 1286 1127 1103 1109 1108 1147 1210 1208 1128 1145 1300 1271 1281 1281 1191 
SE 1149 1175 1148 1144 1150 1248 1105 1223 1172 1272 1154 1237 1128 1108 1256 1239 1141 1173 1162 1242 
SE 1272 1160 1209 1102 1168 1285 1186 1276 1259 1160 1163 1141 1132 1239 1198 1252 1263 1268 1152 1253 
SE 1178 1106 1164 1125 1275 1287 1221 1110 1120 1144 1126 1150 1213 1135 1251 1151 1290 1247 1256 1128 
END

SECTION StochasticTerminals
ST 1 0 0 0 0 0 0 0 0 0 0 0 0 0 0 0 0 0 0 0 0 
ST 2 0 0 0 0 0 0 0 0 0 0 0 0 0 0 0 0 0 0 0 0 
ST 3 0 0 0 0 0 0 0 0 1 0 0 0 0 0 0 0 0 0 0 0 
ST 4 0 0 0 0 0 0 0 0 0 0 0 0 0 1 0 0 0 0 0 0 
ST 5 0 0 1 1 0 0 0 0 0 0 1 0 0 0 0 0 0 0 0 0 
ST 6 0 0 0 0 0 0 0 0 0 0 0 0 0 0 0 1 0 0 0 0 
ST 7 0 0 0 0 0 0 0 0 0 0 0 0 0 0 0 0 0 0 0 0 
ST 8 0 0 0 0 0 0 0 1 0 0 1 0 0 0 1 0 0 0 0 0 
ST 9 0 0 0 0 0 0 0 1 0 1 0 1 0 0 0 0 0 0 0 0 
ST 10 0 0 0 0 0 0 0 0 0 1 0 0 0 0 0 0 0 0 0 0 
ST 11 0 0 0 0 0 0 0 0 0 0 0 0 0 0 0 1 0 0 0 0 
ST 12 0 0 0 0 0 0 0 0 1 0 0 0 0 0 0 0 0 0 0 0 
ST 13 0 0 0 0 0 0 0 0 0 0 1 0 0 0 0 0 0 0 0 0 
ST 14 0 0 0 0 0 0 1 0 0 0 0 0 0 0 0 0 0 0 0 0 
ST 15 0 1 0 0 0 0 0 1 0 0 0 0 0 0 0 0 1 0 0 0 
ST 16 1 0 0 0 0 0 0 0 0 0 0 0 0 0 0 0 1 0 0 0 
ST 17 0 0 1 0 0 0 0 0 0 0 0 0 0 0 0 0 0 0 0 0 
ST 18 0 0 0 0 0 0 0 0 0 0 0 0 0 0 0 0 0 0 0 0 
ST 19 1 0 0 0 0 0 0 0 0 0 0 0 0 0 0 0 0 0 0 0 
ST 20 1 1 0 0 0 0 0 0 0 0 0 0 0 1 0 0 0 0 0 0 
ST 21 0 0 0 0 0 0 0 0 0 0 0 0 0 0 0 0 0 0 0 0 
ST 22 0 0 0 0 0 0 0 0 0 0 0 0 0 0 0 0 0 0 0 0 
ST 23 0 0 1 0 0 0 0 0 0 1 0 0 0 0 0 0 0 0 0 0 
ST 24 0 0 0 0 0 0 0 0 0 0 0 0 0 0 0 0 0 0 0 0 
ST 25 0 0 0 0 0 0 0 0 0 0 0 0 0 0 0 0 0 0 0 0 
ST 26 0 0 0 0 0 0 0 0 0 0 0 0 0 0 0 0 0 0 0 0 
ST 27 0 0 0 0 0 0 0 0 1 0 0 0 0 0 0 0 0 0 0 0 
ST 28 0 0 0 0 0 0 0 0 0 0 0 0 0 0 0 0 1 0 0 0 
ST 29 0 0 0 0 0 0 0 0 0 0 0 0 0 0 0 0 0 0 0 0 
ST 30 0 0 0 1 0 0 0 0 0 0 1 0 0 0 0 0 0 0 0 0 
ST 31 0 0 0 0 0 0 0 0 1 0 0 0 0 0 0 0 0 0 0 0 
ST 32 0 0 0 0 0 0 0 0 0 1 0 0 0 0 0 0 0 0 0 0 
ST 33 0 0 0 0 1 0 0 0 0 0 0 0 0 0 0 0 0 0 0 0 
ST 34 0 0 0 0 0 0 0 0 0 0 0 0 0 0 0 0 0 0 0 0 
ST 35 0 0 0 1 0 0 0 0 0 0 1 0 0 0 0 0 0 0 0 0 
ST 36 0 0 0 1 0 0 0 0 0 0 0 0 0 0 0 0 0 0 0 0 
ST 37 0 0 0 0 1 0 0 0 0 0 0 1 0 0 0 0 0 0 0 0 
ST 38 0 0 0 0 0 0 0 0 0 0 0 1 0 0 0 0 1 0 0 0 
ST 39 0 0 0 0 0 0 0 0 0 0 0 0 0 0 0 0 0 0 0 0 
ST 40 0 0 0 0 0 0 0 0 0 0 0 0 0 0 0 0 0 0 0 0 
ST 41 0 0 0 0 0 0 0 1 0 0 0 0 0 0 0 0 0 0 0 0 
ST 42 0 0 0 0 0 0 0 0 0 0 0 0 0 0 0 0 0 0 0 1 
ST 43 0 1 0 0 0 0 0 0 0 0 1 0 0 0 0 0 0 0 0 0 
ST 44 1 1 0 0 0 0 0 0 0 0 0 0 0 0 0 0 0 0 0 0 
ST 45 0 0 0 0 0 0 0 0 1 0 0 0 0 0 0 0 0 0 0 0 
ST 46 0 1 0 0 0 0 0 0 0 0 0 0 0 0 0 0 0 0 0 0 
ST 47 0 0 0 0 0 0 0 0 0 0 0 0 0 1 0 0 0 0 0 0 
ST 48 0 0 0 0 0 0 0 0 0 1 0 0 0 0 0 1 0 0 0 0 
ST 49 0 0 1 0 0 0 0 0 0 0 0 0 0 0 0 0 0 0 0 0 
ST 50 0 0 0 0 0 0 0 0 0 0 0 0 0 0 0 0 0 0 0 0 
ST 51 0 0 0 0 0 0 0 0 0 0 0 0 0 0 0 0 0 0 0 0 
ST 52 1 0 0 0 0 0 0 0 0 0 0 0 0 0 0 0 0 0 0 0 
ST 53 0 0 0 0 0 0 0 0 1 0 0 0 0 0 0 0 0 0 0 0 
ST 54 0 0 0 0 0 0 0 0 0 0 0 1 0 0 0 0 0 0 0 0 
ST 55 0 0 0 0 0 0 0 0 0 0 0 0 0 0 0 0 0 0 0 0 
ST 56 0 0 0 0 0 0 0 0 0 1 0 0 0 1 0 0 0 0 0 0 
ST 57 0 0 0 0 0 0 0 0 0 0 0 0 0 0 0 0 0 0 0 1 
ST 58 0 0 0 0 0 0 0 0 0 0 0 0 0 0 0 1 0 0 0 0 
ST 59 0 0 0 0 0 0 0 0 0 0 0 0 0 0 0 0 0 1 0 0 
ST 60 0 0 0 0 0 0 0 0 0 0 0 0 0 0 0 1 0 0 0 0 
ST 61 0 0 0 0 0 0 0 0 0 0 0 0 0 0 0 0 0 0 1 0 
ST 62 0 0 0 0 0 0 0 0 0 0 0 0 0 0 0 0 0 0 0 0 
ST 63 0 0 0 0 0 0 0 0 0 0 0 0 0 0 0 0 0 0 0 0 
ST 64 0 0 0 0 0 0 0 0 0 0 0 0 0 0 0 0 0 0 0 0 
ST 65 0 0 0 1 0 0 0 0 0 0 0 0 0 0 0 0 0 0 0 0 
ST 66 0 0 0 0 0 0 0 0 0 0 0 0 0 0 0 0 0 0 0 0 
ST 67 0 0 0 0 0 0 0 0 0 0 0 0 0 0 0 0 0 0 0 0 
ST 68 0 0 0 0 0 0 0 0 0 0 0 0 0 1 0 0 1 0 0 0 
ST 69 0 0 0 0 0 0 0 0 0 0 0 0 0 0 0 0 0 0 0 0 
ST 70 0 0 0 1 0 0 0 0 0 0 0 0 1 1 0 0 0 0 0 0 
ST 71 0 0 0 0 0 0 0 0 0 0 0 1 1 1 0 0 0 0 0 0 
ST 72 0 0 0 0 0 0 0 0 0 0 0 0 0 0 0 0 0 0 0 0 
ST 73 0 0 0 0 0 0 0 0 0 1 0 0 0 0 0 0 1 0 0 0 
ST 74 0 0 0 0 0 0 0 0 0 0 0 0 0 0 0 0 0 0 0 0 
ST 75 0 0 0 0 0 0 0 0 0 0 0 0 0 0 0 0 0 0 0 0 
ST 76 0 0 0 0 0 0 0 0 0 0 1 0 0 0 0 0 0 0 0 0 
ST 77 0 0 0 0 0 0 1 0 0 0 0 0 0 0 0 0 0 0 1 0 
ST 78 0 0 0 0 0 0 0 1 1 0 0 0 0 0 1 0 0 1 1 0 
ST 79 0 0 0 0 0 0 0 0 0 0 0 0 0 0 0 0 0 0 0 0 
ST 80 0 0 0 1 0 0 0 0 0 0 0 0 0 0 0 0 0 1 0 0 
ST 81 0 0 0 0 0 0 0 0 0 0 0 0 0 0 0 0 0 0 0 0 
ST 82 1 0 0 0 0 0 0 0 0 0 0 1 0 0 0 0 0 0 0 0 
ST 83 0 0 0 0 0 0 0 0 0 0 0 0 0 0 0 0 0 0 0 0 
ST 84 0 0 0 0 0 0 0 0 0 0 0 0 0 0 0 0 0 0 0 0 
ST 85 0 0 0 0 0 0 0 0 0 0 0 1 0 0 0 0 0 0 0 0 
ST 86 0 0 0 0 0 0 0 0 0 0 0 0 0 0 1 0 0 0 0 0 
ST 87 0 0 0 0 0 0 0 0 0 0 0 0 0 0 0 0 0 0 0 0 
ST 88 0 0 0 0 0 0 0 0 0 0 0 1 0 0 0 0 0 0 0 0 
ST 89 0 0 0 0 0 0 0 0 0 0 0 0 0 0 0 0 0 0 0 0 
ST 90 0 0 0 1 0 0 0 0 0 0 0 0 0 0 0 0 0 0 0 0 
ST 91 0 0 0 0 0 0 0 0 0 0 0 0 0 0 0 0 0 0 0 0 
ST 92 0 0 0 0 0 0 0 0 0 0 0 0 0 0 0 0 0 0 1 0 
ST 93 0 0 0 0 0 0 0 0 0 0 0 0 0 1 0 0 0 0 0 0 
ST 94 0 0 0 0 0 1 0 0 0 0 0 0 0 0 0 0 0 0 0 0 
ST 95 0 0 0 0 0 1 0 1 0 0 0 0 0 0 0 0 0 0 0 0 
ST 96 0 0 0 1 0 0 1 0 0 0 0 0 0 0 0 0 1 1 0 0 
ST 97 0 0 0 0 0 0 0 0 0 0 0 1 1 0 0 0 0 0 0 0 
ST 98 0 0 0 0 0 0 0 0 0 0 0 0 1 0 0 1 0 0 0 0 
ST 99 0 0 0 0 0 0 0 0 1 0 0 0 0 0 0 0 0 0 0 0 
ST 100 0 0 0 0 0 0 0 0 0 0 1 0 0 0 0 0 0 0 0 0 
ST 101 0 0 1 0 0 0 0 0 0 0 0 0 0 0 1 0 0 0 0 0 
ST 102 0 0 1 0 0 0 0 0 0 0 0 0 0 0 0 0 0 0 0 0 
ST 103 0 0 0 0 0 0 0 0 0 0 0 0 0 0 0 0 0 0 0 0 
ST 104 0 0 0 1 0 0 0 0 0 0 0 0 0 0 0 0 1 0 0 0 
ST 105 1 0 0 0 0 0 0 0 0 0 0 0 0 0 0 0 0 0 0 0 
ST 106 0 0 0 0 0 0 0 0 0 0 0 0 0 0 1 0 0 0 0 0 
ST 107 1 0 0 0 0 0 0 0 0 0 1 0 1 0 0 0 0 0 0 0 
ST 108 1 0 0 0 0 0 0 0 0 0 0 0 0 0 0 0 0 0 0 0 
ST 109 0 0 0 0 0 0 0 0 0 0 0 0 0 1 1 1 0 0 0 1 
ST 110 0 0 0 0 0 0 0 1 0 0 0 0 0 0 0 0 0 0 0 0 
ST 111 1 1 0 0 0 0 0 0 0 0 0 1 0 0 0 0 0 0 0 0 
ST 112 0 0 0 0 0 0 0 0 0 0 0 0 0 0 0 0 0 0 0 0 
ST 113 0 0 0 0 0 0 0 0 0 0 0 0 0 0 1 0 0 0 0 1 
ST 114 0 0 0 0 0 0 0 0 0 0 0 0 1 0 0 1 0 0 0 0 
ST 115 0 0 0 0 0 0 0 0 0 0 0 1 0 0 1 0 0 0 0 0 
ST 116 0 0 0 0 0 0 0 0 1 0 0 0 1 0 0 1 0 0 0 0 
ST 117 1 0 1 0 0 0 0 1 0 0 0 0 0 0 0 0 0 0 0 1 
ST 118 0 0 0 1 0 0 0 1 0 0 0 0 0 0 0 0 0 0 0 0 
ST 119 0 0 1 0 0 0 0 0 0 0 0 0 0 0 0 0 0 0 0 0 
ST 120 0 0 0 0 0 1 0 0 0 0 0 0 0 0 0 0 0 0 0 0 
ST 121 0 0 0 0 1 0 0 0 0 0 0 0 0 0 0 0 1 0 0 0 
ST 122 0 0 0 0 0 0 0 0 0 0 0 0 0 0 0 0 0 0 0 0 
ST 123 0 0 0 0 0 1 0 0 0 0 0 0 0 0 0 0 0 0 0 0 
ST 124 0 0 0 0 0 0 0 0 0 0 0 0 1 0 0 0 0 0 0 0 
ST 125 0 0 1 0 0 0 0 0 0 0 0 0 0 0 0 1 1 0 0 0 
ST 126 0 0 0 0 0 0 0 0 0 0 0 0 0 0 0 0 0 0 0 0 
ST 127 0 0 0 1 0 0 0 0 0 0 0 0 0 0 0 0 0 0 0 0 
ST 128 0 0 0 0 0 0 0 1 0 0 0 0 0 0 0 0 0 0 0 0 
ST 129 0 0 0 0 0 0 0 0 0 0 0 0 0 0 0 0 0 0 0 0 
ST 130 0 0 0 0 0 0 0 0 0 0 0 0 0 0 0 0 0 0 0 0 
ST 131 0 0 0 0 0 0 0 1 0 0 0 0 0 0 0 0 0 0 0 0 
ST 132 0 0 0 0 0 0 0 0 0 0 0 0 0 0 0 0 0 0 0 0 
ST 133 0 0 0 0 0 0 0 0 0 0 0 0 0 0 0 0 0 0 0 0 
ST 134 0 0 0 1 0 0 0 0 0 0 0 0 0 0 0 0 0 0 0 0 
ST 135 0 0 0 0 0 0 0 0 0 0 0 0 0 0 0 0 0 0 0 0 
ST 136 0 0 0 0 0 0 0 0 0 0 0 0 0 0 0 0 0 0 0 0 
ST 137 0 0 0 0 0 0 0 0 0 0 0 0 0 0 0 0 0 0 0 0 
ST 138 1 0 0 0 0 0 0 0 0 0 0 0 0 0 0 0 0 0 0 0 
ST 139 0 0 0 1 0 0 0 0 0 0 0 0 0 1 0 1 0 0 0 0 
ST 140 0 0 0 0 0 0 0 0 0 0 0 0 0 0 0 0 0 1 0 0 
ST 141 0 0 0 0 0 0 0 0 1 0 0 0 0 0 0 0 0 1 0 0 
ST 142 0 0 0 0 0 0 0 0 0 0 0 0 0 0 0 0 0 0 0 0 
ST 143 0 0 0 0 0 1 0 0 0 1 0 0 0 0 0 0 0 0 0 0 
ST 144 0 0 0 0 0 0 0 0 0 0 0 0 0 0 0 0 0 0 0 0 
ST 145 0 0 0 0 0 0 0 1 0 0 0 0 0 0 0 1 0 0 0 0 
ST 146 0 0 0 0 0 0 0 0 0 0 0 0 0 0 0 0 0 0 0 1 
ST 147 0 0 0 0 0 0 0 0 0 0 0 0 0 0 0 0 0 0 0 0 
ST 148 0 0 0 0 0 0 0 1 0 0 0 0 0 0 0 0 0 0 0 0 
ST 149 0 0 0 0 0 0 0 0 0 0 0 0 0 0 0 0 0 0 0 0 
ST 150 0 0 0 0 0 0 0 0 0 0 0 0 0 0 0 0 0 0 0 0 
ST 151 0 0 0 0 0 0 0 0 0 0 0 0 0 0 0 0 0 0 0 0 
ST 152 0 0 0 0 0 0 0 0 0 0 0 0 0 0 0 0 0 0 1 0 
ST 153 0 0 0 0 0 0 0 0 0 1 0 0 0 0 0 1 0 0 0 0 
ST 154 0 0 0 0 0 0 0 0 0 0 0 0 0 0 0 0 0 1 0 0 
ST 155 0 0 0 0 0 0 1 0 0 0 0 0 0 0 1 0 0 0 0 0 
ST 156 0 0 0 0 0 0 0 0 0 0 0 0 0 0 0 1 0 0 0 0 
ST 157 1 0 1 0 0 0 0 0 0 0 0 0 0 0 0 0 0 0 0 0 
ST 158 0 0 0 0 0 0 0 0 0 0 0 0 0 0 0 0 0 0 0 0 
ST 159 0 0 0 0 0 0 0 0 0 0 0 1 0 0 0 0 0 0 0 0 
ST 160 0 0 0 0 0 0 0 0 0 0 0 0 0 0 0 0 0 0 0 0 
ST 161 0 0 0 1 0 1 0 0 1 1 0 0 0 0 0 0 1 0 1 0 
ST 162 0 1 0 0 1 0 0 0 0 0 1 0 0 0 0 0 0 0 0 0 
ST 163 0 1 0 0 0 0 1 0 0 0 1 1 0 0 0 1 1 1 0 0 
ST 164 0 1 0 1 1 1 1 1 0 1 0 0 0 1 0 1 0 0 1 0 
ST 165 1 1 1 1 1 1 1 1 1 1 1 1 1 1 1 1 1 1 1 1 
ST 166 1 0 0 0 1 0 1 1 1 0 0 0 0 0 1 0 0 0 0 0 
ST 167 0 0 0 1 0 0 1 0 1 0 0 0 0 0 0 0 0 0 1 1 
ST 168 0 1 0 0 1 0 0 0 1 0 0 0 1 0 0 1 0 1 1 1 
ST 169 0 1 1 0 0 0 0 0 0 0 0 1 0 0 0 0 1 1 0 1 
ST 170 0 0 1 0 0 0 0 0 1 1 1 0 0 0 1 1 0 0 0 0 
ST 171 0 0 0 0 0 1 0 0 1 0 1 0 0 0 0 1 1 0 0 0 
ST 172 0 0 1 0 0 0 0 0 0 1 0 0 1 1 1 0 0 1 0 1 
ST 173 1 0 0 0 0 0 0 0 0 0 1 0 0 0 1 1 0 1 1 0 
ST 174 0 1 0 1 0 0 0 0 0 1 1 0 0 0 1 1 0 1 0 0 
ST 175 1 0 0 0 0 0 0 1 1 1 0 0 1 1 0 0 0 1 1 0 
ST 176 1 0 0 0 1 0 1 0 0 1 0 0 0 1 0 0 0 0 0 0 
ST 177 1 0 1 1 0 0 0 0 1 0 0 0 0 0 0 0 1 0 0 0 
END


SECTION Coordinates
DD 1 15677 12225
DD 2 15690 12225
DD 3 15677 12224
DD 4 15689 12224
DD 5 15677 12223
DD 6 15689 12223
DD 7 15657 12173
DD 8 15657 12175
DD 9 15672 12173
DD 10 15666 12172
DD 11 15666 12176
DD 12 15641 12173
DD 13 15641 12175
DD 14 15656 12173
DD 15 15656 12175
DD 16 15647 12172
DD 17 15647 12176
DD 18 15621 12173
DD 19 15621 12175
DD 20 15636 12173
DD 21 15636 12175
DD 22 15630 12172
DD 23 15630 12176
DD 24 15605 12173
DD 25 15605 12175
DD 26 15620 12173
DD 27 15620 12175
DD 28 15611 12172
DD 29 15611 12176
DD 30 15585 12173
DD 31 15585 12175
DD 32 15600 12173
DD 33 15600 12175
DD 34 15594 12172
DD 35 15594 12176
DD 36 15569 12173
DD 37 15569 12175
DD 38 15584 12173
DD 39 15584 12175
DD 40 15575 12172
DD 41 15575 12176
DD 42 15549 12173
DD 43 15549 12175
DD 44 15564 12173
DD 45 15564 12175
DD 46 15558 12172
DD 47 15558 12176
DD 48 15533 12173
DD 49 15533 12175
DD 50 15548 12173
DD 51 15548 12175
DD 52 15539 12172
DD 53 15539 12176
DD 54 15513 12173
DD 55 15513 12175
DD 56 15528 12173
DD 57 15528 12175
DD 58 15522 12172
DD 59 15522 12176
DD 60 15497 12173
DD 61 15497 12175
DD 62 15512 12173
DD 63 15512 12175
DD 64 15503 12172
DD 65 15503 12176
DD 66 15477 12173
DD 67 15477 12175
DD 68 15492 12173
DD 69 15492 12175
DD 70 15486 12172
DD 71 15486 12176
DD 72 15461 12173
DD 73 15461 12175
DD 74 15476 12173
DD 75 15476 12175
DD 76 15467 12172
DD 77 15467 12176
DD 78 15456 12173
DD 79 15456 12175
DD 80 15450 12172
DD 81 15450 12176
DD 82 15672 12004
DD 83 15450 12173
DD 84 15450 12175
DD 85 15456 12172
DD 86 15456 12176
DD 87 15461 12172
DD 88 15461 12176
DD 89 15467 12173
DD 90 15467 12175
DD 91 15476 12172
DD 92 15477 12172
DD 93 15476 12176
DD 94 15477 12176
DD 95 15486 12173
DD 96 15486 12175
DD 97 15492 12172
DD 98 15492 12176
DD 99 15497 12172
DD 100 15497 12176
DD 101 15503 12173
DD 102 15503 12175
DD 103 15512 12172
DD 104 15513 12172
DD 105 15512 12176
DD 106 15513 12176
DD 107 15522 12173
DD 108 15522 12175
DD 109 15528 12172
DD 110 15528 12176
DD 111 15533 12172
DD 112 15533 12176
DD 113 15539 12173
DD 114 15539 12175
DD 115 15548 12172
DD 116 15549 12172
DD 117 15548 12176
DD 118 15549 12176
DD 119 15558 12173
DD 120 15558 12175
DD 121 15564 12172
DD 122 15564 12176
DD 123 15569 12172
DD 124 15569 12176
DD 125 15575 12173
DD 126 15575 12175
DD 127 15584 12172
DD 128 15585 12172
DD 129 15584 12176
DD 130 15585 12176
DD 131 15594 12173
DD 132 15594 12175
DD 133 15600 12172
DD 134 15600 12176
DD 135 15605 12172
DD 136 15605 12176
DD 137 15611 12173
DD 138 15611 12175
DD 139 15620 12172
DD 140 15621 12172
DD 141 15620 12176
DD 142 15621 12176
DD 143 15630 12173
DD 144 15630 12175
DD 145 15636 12172
DD 146 15636 12176
DD 147 15641 12172
DD 148 15641 12176
DD 149 15647 12173
DD 150 15647 12175
DD 151 15656 12172
DD 152 15657 12172
DD 153 15656 12176
DD 154 15657 12176
DD 155 15666 12173
DD 156 15666 12175
DD 157 15672 12172
DD 158 15672 12175
DD 159 15672 12176
DD 160 15689 12225
DD 161 15677 12225
DD 162 15690 12225
DD 163 15677 12224
DD 164 15689 12224
DD 165 15677 12223
DD 166 15689 12223
DD 167 15657 12173
DD 168 15657 12175
DD 169 15672 12173
DD 170 15666 12172
DD 171 15666 12176
DD 172 15641 12173
DD 173 15641 12175
DD 174 15656 12173
DD 175 15656 12175
DD 176 15647 12172
DD 177 15647 12176
END

EOF
